9371
2459
2555
985
5070
2362
7551
10081
3854
9472
7411
4949
3549
2346
9321
4160
3058
5842
7025
9744
8330
4676
7361
9484
9277
7647
1170
4492
466
4827
4283
785
696
5327
451
6525
2602
1825
8862
1832
10075
9285
5145
641
1024
6201
6773
3452
9614
9993
8220
